coords = array2d(1..44, 1..2, [826, 750, 680, 851, 835, 946, 643, 132, 476,
    535, 725, 401, 41, 299, 239, 891, 852, 52, 526, 555, 515, 427,
    224, 634, 726, 370, 550, 499, 390, 141, 370, 905, 616, 458, 740,
    292, 728, 887, 991, 922, 363, 939, 687, 628, 803, 73, 253, 126,
    261, 404, 543, 602, 653, 981, 366, 79, 754, 308, 408, 77, 862,
    893, 9, 306, 943, 625, 161, 729, 579, 483, 147, 165, 555, 183, 8,
    436, 745, 461, 838, 103, 781, 845, 907, 332, 686, 685, 703, 954]);

n = 44;

